c --- [ banner ] -------------------------------------------------------------
c 
c CaDiCaL Radically Simplified CDCL SAT Solver
c Copyright (c) 2016-2021 A. Biere, M. Fleury, N. Froleyks
c 
c Version 1.5.2 a5f15211db36c3956764e18194dd5bd63bf3b5e6
c g++ (GCC) 9.3.0 -Wall -Wextra -O3 -DNDEBUG
c Fri Oct 21 01:27:37 EDT 2022 Linux gra-login3 3.10.0-1160.66.1.el7.x86_64 x86_64
c 
c --- [ limit ] --------------------------------------------------------------
c 
c setting conflict limit to 200000 conflicts (due to '200000')
c 
c --- [ parsing input ] ------------------------------------------------------
c 
c reading DIMACS file from '33.cubes4861.adj'
c opening file to read '33.cubes4861.adj'
c found 'p cnf 6160 1595473' header
c parsed 1595473 clauses in 19.06 seconds process time
c closing file '33.cubes4861.adj'
c after reading 1457566764 bytes 1390.0 MB
c 
c --- [ options ] ------------------------------------------------------------
c 
c all options are set to their default value
c 
c --- [ solving ] ------------------------------------------------------------
c 
c time measured in process time since initialization
c 
c  seconds    reductions  redundant   irredundant
c          MB     restarts       trail       variables
c            level   conflicts       glue         remaining
c 
c * 19.06 1375  0 0   0    0    0  0% 0 1595422 2436 40%
c { 19.83 1419  0 0   0    0    0  0% 0 1595422 2436 40%
c i 24.28 1510 218 0  19  159  124 29% 20 1595422 2435 40%
c i 24.51 1511 190 0  19  185  147 29% 20 1595422 2434 40%
c i 24.57 1511 189 0  19  187  148 29% 20 1595422 2433 39%
c i 24.58 1511 188 0  19  188  148 29% 20 1595422 2432 39%
c i 24.65 1511 181 0  20  199  154 29% 22 1595422 2431 39%
c i 25.87 1516 158 0  31  269  215 28% 22 1595422 2430 39%
c i 25.95 1517 155 0  34  277  221 28% 23 1595422 2429 39%
c - 31.01 1482 151 1  38  302  242 28% 22 398350 2429 39%
c i 31.69 1434 145 1  43  365  285 27% 23 398350 2428 39%
c i 31.83 1434 140 1  46  383  300 27% 23 398350 2427 39%
c i 32.23 1370 140 1  50  435  336 27% 23 398350 2426 39%
c i 32.62 1370 140 1  56  458  357 27% 26 398350 2425 39%
c i 32.71 1370 140 1  57  460  358 27% 26 398350 2424 39%
c i 33.21 1370 137 1  62  481  376 26% 26 398350 2423 39%
c i 34.60 1371 130 1  81  587  459 26% 28 398350 2421 39%
c i 35.37 1372 130 1  93  641  505 27% 32 398350 2420 39%
c i 36.62 1373 128 1 105  686  545 27% 32 398350 2419 39%
c i 37.66 1373 120 1 116  775  623 27% 32 398350 2418 39%
c 
c  seconds     reductions  redundant   irredundant
c          MB      restarts       trail       variables
c             level   conflicts       glue         remaining
c 
c i 37.70 1373 120 1 116  779  626 27% 32 398350 2417 39%
c i 37.72 1373 119 1 116  788  634 27% 32 398350 2416 39%
c i 37.72 1373 119 1 116  790  634 27% 32 398350 2415 39%
c i 37.74 1373 119 1 116  792  635 27% 32 398350 2414 39%
c i 37.85 1373 116 1 116  820  662 27% 32 398350 2413 39%
c i 37.98 1373 110 1 116  885  724 27% 31 398350 2412 39%
c i 38.01 1373 110 1 116  894  731 27% 31 398350 2411 39%
c i 38.40 1373 109 1 121  927  760 27% 32 398350 2410 39%
c i 38.42 1373 109 1 121  928  760 27% 32 398350 2409 39%
c } 38.62 1373 102 1 121 1000  827 27% 30 398350 2409 39%
c [ 38.62 1373  0 1 121 1000  827  0% 0 398350 2409 39%
c O 38.65 1373 23 1 121 1004  830 26% 11 398350 2409 39%
c i 38.65 1373 19 1 121 1005  830 23% 9 398350 2363 38%
c i 38.65 1373 16 1 121 1006  830 21% 7 398350 2346 38%
c i 39.13 1373 15 1 121 1051  853 23% 12 398350 2345 38%
c i 39.18 1373 17 1 121 1065  864 25% 14 398350 2344 38%
c i 39.40 1373 27 1 121 1238 1006 30% 23 398350 2343 38%
c i 39.42 1373 27 1 121 1243 1010 30% 23 398350 2342 38%
c - 40.33 1554 27 2 121 1262  908 30% 23 397174 2342 38%
c i 40.98 1554 34 2 121 1497 1072 30% 29 397174 2341 38%
c 
c  seconds    reductions  redundant   irredundant
c          MB     restarts       trail       variables
c            level   conflicts       glue         remaining
c 
c i 41.08 1554 36 2 121 1605 1153 30% 30 397174 2340 38%
c i 41.32 1554 36 2 121 1854 1346 30% 31 397174 2339 38%
c i 41.39 1554 36 2 121 1940 1404 30% 31 397174 2338 38%
c i 41.59 1554 35 2 122 2197 1573 30% 30 397174 2337 38%
c - 42.49 1553 34 3 122 2701 1426 30% 29 397159 2337 38%
c ] 43.16 1552 32 3 122 3000 1590 50% 28 397159 2337 38%
c { 43.16 1552 102 3 122 3000 1590 71% 30 397159 2337 38%
c F 43.19 1552 102 3 122 3006 1596 71% 30 397159 2337 38%
c i 43.37 1552 101 3 122 3018 1607 71% 30 397159 2303 37%
c i 43.46 1552 100 3 122 3027 1615 70% 30 397159 2302 37%
c i 44.00 1552 97 3 126 3115 1680 68% 29 397159 2301 37%
c i 44.09 1552 96 3 126 3130 1693 68% 29 397159 2300 37%
c i 44.27 1552 91 3 126 3231 1774 66% 29 397159 2299 37%
c i 44.40 1552 90 3 126 3255 1794 66% 29 397159 2298 37%
c i 44.85 1552 82 3 126 3448 1963 63% 28 397159 2297 37%
c i 45.17 1552 79 3 126 3590 2081 62% 28 397159 2296 37%
c i 45.37 1552 74 3 126 3743 2207 61% 27 397159 2295 37%
c i 45.95 1552 61 3 130 4542 2837 57% 26 397159 2294 37%
c - 46.54 1496 60 4 130 4620 2083 57% 26 363780 2294 37%
c 3 47.75 1496 57 4 139 5000 3373 56% 26 363760 2284 37%
c 
c  seconds    reductions  redundant   irredundant
c          MB     restarts       trail       variables
c            level   conflicts       glue         remaining
c 
c 2 47.83 1496 57 4 139 5000 3497 56% 26 363760 2284 37%
c p 54.63 1495 57 4 139 5000 6004 56% 26 363760 2229 36%
c d 55.25 1495 57 4 139 5000 5938 56% 26 363599 2227 36%
c # 57.27 1495 50 4 151 6007 6707 54% 25 363599 2227 36%
c - 60.83 1485 47 5 193 6963 2977 53% 25 363599 2227 36%
c } 60.87 1485 47 5 193 7000 3003 53% 24 363599 2227 36%
c [ 60.87 1485 32 5 193 7000 3003 50% 28 363599 2227 36%
c - 63.02 1343 27 6 195 9778 3199 50% 23 363599 2227 36%
c I 63.33 1343 27 6 195 10009 3361 50% 23 363599 2227 36%
c - 72.06 1344 30 7 197 13058 4144 49% 25 363599 2227 36%
c ] 76.25 1344 31 7 198 15002 5560 49% 25 363599 2227 36%
c { 76.25 1344 47 7 198 15002 5560 53% 24 363599 2227 36%
c p 78.43 1344 47 7 198 15002 9487 53% 24 363599 2227 36%
c B 78.71 1344 47 7 199 15015 9498 53% 25 363599 2227 36%
c - 83.51 1344 44 8 283 16806 4893 52% 24 363599 2227 36%
c s 84.72 1344 39 8 299 18713 6025 52% 23 361980 2227 36%
c v 91.46 1344 39 8 299 18713 6025 52% 23 361968 2227 36%
c t 91.63 1344 39 8 299 18713 6016 52% 23 361955 2227 36%
c e 92.99 1346 39 8 299 18713 5822 52% 23 359798 1045 17%
c s 93.12 1346 39 8 299 18713 5822 52% 23 359425 1045 17%
c 
c  seconds    reductions   redundant   irredundant
c          MB     restarts        trail       variables
c            level    conflicts       glue         remaining
c 
c W 96.99 1346 35 8 301 21018 7351 68% 22 359425 1045 17%
c - 97.16 1347 35 9 301 21023 5192 68% 22 359425 1045 17%
c - 109.50 1347 35 10 628 25689 5966 66% 22 359425 1045 17%
c F 111.59 1347 33 10 628 28019 7642 66% 21 359425 1045 17%
c 3 122.86 1347 34 10 919 30003 9923 65% 22 359425 1045 17%
c p 124.92 1347 34 10 919 30003 11800 65% 22 359425 1045 17%
c - 127.03 1347 34 11 956 30822 6952 65% 22 359425 1045 17%
c } 127.24 1347 34 11 957 31004 7087 65% 22 359425 1045 17%
c [ 127.24 1347 31 11 957 31004 7087 110% 25 359425 1045 17%
c B 129.20 1347 27 11 960 36021 9870 93% 22 359425 1045 17%
c - 129.59 1347 27 12 960 36423 6653 92% 23 359425 1045 17%
c - 132.97 1347 32 13 964 42494 7901 83% 26 359425 1045 17%
c W 135.84 1347 34 13 964 45026 9714 81% 28 359425 1045 17%
c - 137.98 1347 34 14 965 49027 8580 78% 29 359425 1045 17%
c p 140.48 1347 34 14 965 50003 11928 77% 29 359425 1045 17%
c s 143.04 1347 34 14 965 52422 13664 76% 28 359083 1045 17%
c v 149.67 1347 34 14 965 52422 13664 76% 28 359070 1045 17%
c e 151.09 1347 34 14 965 52422 13628 76% 28 359065 1040 17%
c s 151.27 1347 34 14 965 52422 13628 76% 28 358786 1040 17%
c O 155.41 1348 33 14 966 55027 15305 75% 28 358786 1040 17%
c 
c  seconds     reductions    redundant   irredundant
c           MB      restarts        trail       variables
c             level     conflicts       glue         remaining
c 
c - 156.41 1348 33 15 967 56028 8874 75% 28 358786 1040 17%
c ] 157.98 1348 32 15 968 57758 9954 74% 27 358786 1040 17%
c 1 157.98 1348 32 15 968 57758 9954 74% 27 358786 1040 17%
c 
c --- [ writing output ] -----------------------------------------------------
c 
c writing simplified CNF to DIMACS file 'simp/33.cubes4861.adj.simp1'
c * 157.98 1348 32 15 968 57758 9954 74% 27 358786 1040 17%
c opening file to write 'simp/33.cubes4861.adj.simp1'
c writing 'p cnf 6160 358786' header
c closing file 'simp/33.cubes4861.adj.simp1'
c after writing 162912347 bytes 155.4 MB
c wrote 358786 clauses in 1.17 seconds process time
c 
c --- [ writing extension ] --------------------------------------------------
c 
c writing extension stack to 'simp/33.cubes4861.adj.ext1'
c opening file to write 'simp/33.cubes4861.adj.ext1'
c closing file 'simp/33.cubes4861.adj.ext1'
c after writing 79330 bytes 0.1 MB
c wrote 3579 witnesses in 0.00 seconds process time
c 
c --- [ result ] -------------------------------------------------------------
c 
s SATISFIABLE
c 
c --- [ run-time profiling ] -------------------------------------------------
c 
c process time taken by individual solving procedures
c (percentage relative to process time for solving)
c 
c       105.75   76.12% search
c        65.18   46.92% unstable
c        38.14   27.46% stable
c        33.17   23.88% simplify
c        19.06   13.72% parse
c        13.65    9.82% vivify
c        12.41    8.93% probe
c         4.83    3.48% elim
c         1.65    1.19% walk
c         0.77    0.55% lucky
c         0.59    0.43% subsume
c         0.20    0.14% ternary
c   =================================
c       138.92   87.29% solve
c 
c last line shows process time for solving
c (percentage relative to total process time)
c 
c --- [ statistics ] ---------------------------------------------------------
c 
c chronological:             10306        17.84 %  of conflicts
c conflicts:                 57758       415.76    per second
c decisions:                129566       932.65    per second
c eliminated:                 1187        19.27 %  of all variables
c fixed:                       777        12.61 %  of all variables
c learned:                   56576        97.95 %  per conflict
c learned_lits:           10244854       100.00 %  learned literals
c minimized:                     0         0.00 %  learned literals
c shrunken:                6344328        61.93 %  learned literals
c minishrunken:             775926         7.57 %  learned literals
c propagations:            5727724         0.04 M  per second
c reduced:                   30808        53.34 %  per conflict
c rephased:                     10      5775.80    interval
c restarts:                    968        59.67    interval
c stabilizing:                   3        63.64 %  of conflicts
c substituted:                  12         0.19 %  of all variables
c subsumed:                  18442         0.54 %  of all clauses
c strengthened:               7788         0.23 %  of all clauses
c ternary:                    3901         0.63 %  of resolved
c vivified:                     63         0.00 %  of all clauses
c walked:                        2     28879.00    interval
c weakened:                   2802         2.99    average size
c 
c seconds are measured in process time for solving
c 
c --- [ resources ] ----------------------------------------------------------
c 
c total process time since initialization:       159.15    seconds
c total real time since initialization:          159.58    seconds
c maximum resident set size of process:         1733.42    MB
c 
c --- [ shutting down ] ------------------------------------------------------
c 
c exit 10
WARNING! DIMACS header mismatch: wrong number of variables.
============================[ Problem Statistics ]=============================
|                                                                             |
|  Number of variables:          6111                                         |
|  Number of clauses:          358786                                         |
|  Parse time:                   2.11 s                                       |
|  Simplification time:          0.05 s                                       |
|                                                                             |
============================[ Search Statistics ]====================================================
| Conflicts |          ORIGINAL         |          LEARNT          | Num Sols |      SUBGRAPHS      |
|           |    Vars  Clauses Literals |    Limit  Clauses Lit/Cl |          | Canonical Noncanon. |
=====================================================================================================
|       103 |    6020   358789 35489423 |     2000      103    140 |        0 |        19         3 |
|       305 |    6020   358841 35490240 |     2000      305     65 |        0 |        69        55 |
|       566 |    6020   358877 35490893 |     2000      566     74 |        0 |        74        91 |
|       927 |    6020   358901 35491371 |     2000      927     80 |        0 |       105       115 |
|      1440 |    6020   358908 35491571 |     2000     1440     93 |        0 |       117       122 |
|      2211 |    6020   358920 35492174 |     3602     1213     66 |        0 |       139       134 |
|      3625 |    6020   359195 35497774 |     3602     2627     82 |        0 |       270       409 |
|      5598 |    6020   359460 35503335 |     5003     2801     55 |        0 |       317       674 |
|      8382 |    6020   359682 35508585 |     6305     3087     47 |        0 |       360       896 |
|     12388 |    6020   359844 35512451 |     7552     3940     46 |        0 |       430      1058 |
|     18324 |    6020   360014 35515982 |     8777     6101     61 |        0 |       518      1228 |
|     28053 |    6020   361094 35536185 |    11197     6450     45 |        0 |       761      2308 |
|     41591 |    6020   361658 35548770 |    13604     8195     45 |        0 |       978      2872 |
|     62230 |    6020   362836 35569203 |    16007    14637     70 |        0 |      1239      4050 |
|     91974 |    6020   363388 35580309 |    19611    18585     75 |        0 |      1495      4602 |
|    137554 |    6020   365179 35611846 |    24409    21363     71 |        0 |      1981      6393 |
|    204096 |    6020   366037 35625590 |    30406    20902     63 |        0 |      2349      7251 |
|    304718 |    6020   368133 35663770 |    37608    21326     51 |        0 |      3082      9347 |
|    453520 |    6020   369146 35680603 |    46013    25933     51 |        0 |      3361     10360 |
|    680603 |    6020   374546 35778902 |    55611    52214     82 |        0 |      5017     15760 |
|   1020091 |    6020   381509 35914227 |    68819    52910     74 |        0 |      7940     22723 |
|   1527680 |    6020   390310 36093135 |    84405    66485     72 |        0 |     10860     31524 |
|   2295189 |    6020   409637 36484398 |   103612    86801     76 |        0 |     16027     50851 |
|   3427365 |    6020   419539 36675854 |   127626    68991     43 |        0 |     18863     60753 |
|   5133417 |    6020   442180 37171189 |   156440    78257     37 |        0 |     23659     83394 |
|   7760303 |    6020   543950 39417949 |   192434    98137     35 |        0 |     44215    185164 |
|  11617038 |    6020   613010 40946229 |   234421   230859     73 |        0 |     59181    254224 |
|  17391752 |    6020   706212 43142086 |   287217   281169     65 |        0 |     78068    347426 |
|  26214935 |    6014   945173 47302345 |   353212   315347     68 |        3 |    124702    648337 |
=====================================================================================================
Number of solutions   : 3
Canonical subgraphs   : 155422         (13 /sec)
          order  3    : 1              (166667 /sec)
          order  4    : 1              (500000 /sec)
          order  5    : 1              (250000 /sec)
          order  6    : 1              (55556 /sec)
          order  7    : 1              (8850 /sec)
          order  8    : 2              (1389 /sec)
          order  9    : 7              (353 /sec)
          order 10    : 28             (106 /sec)
          order 11    : 111            (31 /sec)
          order 12    : 628            (10 /sec)
          order 13    : 4884           (11 /sec)
          order 14    : 38511          (15 /sec)
          order 15    : 93147          (12 /sec)
          order 16    : 15049          (13 /sec)
          order 17    : 2144           (15 /sec)
          order 18    : 370            (13 /sec)
          order 19    : 294            (12 /sec)
          order 20    : 127            (12 /sec)
          order 21    : 112            (12 /sec)
          order 22    : 3              (1 /sec)
Noncanonical subgraphs: 1082866        (119 /sec)
          order  3    : 0              (-nan /sec)
          order  4    : 0              (-nan /sec)
          order  5    : 0              (-nan /sec)
          order  6    : 0              (-nan /sec)
          order  7    : 0              (-nan /sec)
          order  8    : 0              (-nan /sec)
          order  9    : 0              (-nan /sec)
          order 10    : 0              (-nan /sec)
          order 11    : 0              (-nan /sec)
          order 12    : 0              (-nan /sec)
          order 13    : 11396          (7250 /sec)
          order 14    : 167808         (1137 /sec)
          order 15    : 157133         (630 /sec)
          order 16    : 744510         (86 /sec)
          order 17    : 1698           (104 /sec)
          order 18    : 202            (66 /sec)
          order 19    : 1              (3448 /sec)
          order 20    : 0              (-nan /sec)
          order 21    : 1              (641 /sec)
Canonicity checking   : 11869.2 s
Noncanonicity checking: 9111.92 s
Total canonicity time : 20981.1 s
database reductions   : 329
restarts              : 46616
conflicts             : 33152608       (930 /sec)
decisions             : 41072314       (0.00 % random) (1153 /sec)
propagations          : 1786403321     (50134 /sec)
conflict literals     : 3405013930     (57.68 % deleted)
actual reward         : 0.218450
Memory used           : 827.00 MB
CPU time              : 35632.2 s

UNSATISFIABLE
